n_potions = 66;
alchemy = [3, 4, 3, 5, 5, 4, 2, 2, 3, 1, 4, 5, 2, 1, 4, 3, 2, 5, 1, 5, 3, 3, 2, 1, 4, 1, 4, 4, 5, 4, 1, 2, 4, 4, 5, 5, 3, 4, 4, 2, 2, 1, 2, 5, 5, 1, 3, 5, 2, 1, 4, 1, 1, 3, 5, 1, 5, 2, 5, 3, 3, 4, 5, 4, 2, 5];
n_days = 12;
min_potions = 5;
max_potions = 7;
min_alchemists = 5;
max_alchemists = 35;
prereqs = [|7,1
|8,2
|10,5
|11,5
|11,6
|12,7
|13,11
|14,3
|17,10
|18,10
|18,11
|19,8
|19,11
|21,10
|23,17
|24,13
|24,19
|26,23
|30,9
|32,9
|33,27
|35,9
|37,20
|37,30
|37,35
|41,9
|41,17
|41,18
|43,20
|45,38
|46,37
|47,42
|48,34
|48,35
|49,30
|50,43
|53,47
|54,50
|55,43
|55,38
|56,51
|57,39
|57,34
|58,28
|59,55
|61,48
|61,55
|62,31
|63,48
|65,59
|];
